130
100
15
14
17
8
5
7
10
9
17
21
7
22
2
21
8
5
4
1
5
21
25
12
6
2
5
21
3
16
25
12
24
17
17
16
22
24
2
21
8
17
9
16
24
2
23
2
17
10
13
9
13
3
16
3
10
20
11
2
5
18
17
18
7
8
1
13
11
9
5
3
12
15
2
24
22
6
20
9
4
5
16
8
9
7
5
3
23
2
3
19
6
24
4
21
5
11
2
2
11
7
25
4
24
10
3
4
13
22
15
19
8
16
8
22
10
9
16
7
21
14
10
18
20
2
4
2
10
2
1
22
